Instance: Data/Instances_txt/inst_60_30_2.txt
SetUpTime: 20.363005876541138

Gurobi 10.0.1 (mac64[x86]) logging started Mo 14 Aug 18:27:22 2023

Set parameter LogFile to value "Output/MILP_RELAXED_inst_60_30_2_2023-08-14_09-45-28.txt"

Gurobi 10.0.1 (mac64[x86]) logging started Mo 14 Aug 18:27:22 2023

Set parameter LogFile to value "Output/MILP_RELAXED_inst_60_30_2_2023-08-14_09-45-28.txt"
Gurobi Optimizer version 10.0.1 build v10.0.1rc0 (mac64[x86])

CPU model: Intel(R) Core(TM) i5-1038NG7 CPU @ 2.00GHz
Thread count: 4 physical cores, 8 logical processors, using up to 8 threads

Optimize a model with 121 rows, 27233 columns and 192368 nonzeros
Model fingerprint: 0x6aeb3e6d
Coefficient statistics:
  Matrix range     [1e+00, 1e+00]
  Objective range  [4e+00, 6e+03]
  Bounds range     [1e+00, 1e+00]
  RHS range        [1e+00, 1e+00]
Presolve time: 0.05s
Presolved: 121 rows, 27233 columns, 192368 nonzeros

Concurrent LP optimizer: dual simplex and barrier
Showing barrier log only...

Ordering time: 0.00s

Barrier statistics:
 AA' NZ     : 5.001e+03
 Factor NZ  : 7.279e+03 (roughly 10 MB of memory)
 Factor Ops : 5.785e+05 (less than 1 second per iteration)
 Threads    : 3

                  Objective                Residual
Iter       Primal          Dual         Primal    Dual     Compl     Time
   0   4.59265417e+06  0.00000000e+00  4.28e+02 0.00e+00  4.51e-01     0s
   1   7.43814137e+05 -9.01205396e+03  6.48e+01 7.11e-15  7.09e-02     0s
   2   2.97176104e+04 -6.10975139e+03  8.95e-01 7.11e-15  2.75e-03     0s
   3   1.66668024e+04  8.61765919e+03  4.44e-15 7.55e-15  5.77e-04     0s
   4   1.39892429e+04  1.13401228e+04  1.71e-14 7.11e-15  1.90e-04     0s
   5   1.30407631e+04  1.16638607e+04  1.33e-14 7.11e-15  9.88e-05     0s
   6   1.26915811e+04  1.18145670e+04  8.33e-15 7.11e-15  6.29e-05     0s
   7   1.22983342e+04  1.18670026e+04  1.20e-14 5.33e-15  3.09e-05     0s
   8   1.20444194e+04  1.19409068e+04  4.74e-14 7.11e-15  7.42e-06     0s
   9   1.20155346e+04  1.19540141e+04  3.00e-14 7.11e-15  4.41e-06     0s
  10   1.19835159e+04  1.19633768e+04  3.29e-14 7.11e-15  1.44e-06     0s
  11   1.19740399e+04  1.19662896e+04  5.69e-14 7.11e-15  5.56e-07     0s
  12   1.19710726e+04  1.19667907e+04  6.38e-14 7.11e-15  3.07e-07     0s
  13   1.19696764e+04  1.19675938e+04  8.50e-14 7.11e-15  1.49e-07     0s
  14   1.19683300e+04  1.19680302e+04  4.86e-13 7.11e-15  2.15e-08     0s
  15   1.19681364e+04  1.19681227e+04  1.06e-12 7.11e-15  9.85e-10     0s
  16   1.19681274e+04  1.19681268e+04  6.13e-11 7.11e-15  3.90e-11     0s
  17   1.19681270e+04  1.19681270e+04  3.06e-10 7.11e-15  3.97e-12     0s

Barrier solved model in 17 iterations and 0.35 seconds (0.18 work units)
Optimal objective 1.19681270e+04

Crossover log...

      26 DPushes remaining with DInf 0.0000000e+00                 0s
       0 DPushes remaining with DInf 0.0000000e+00                 0s

      51 PPushes remaining with PInf 0.0000000e+00                 0s
       0 PPushes remaining with PInf 0.0000000e+00                 0s

  Push phase complete: Pinf 0.0000000e+00, Dinf 2.9576341e-13      0s


Solved with barrier
Iteration    Objective       Primal Inf.    Dual Inf.      Time
      78    1.1968127e+04   0.000000e+00   0.000000e+00      0s

Solved in 78 iterations and 0.38 seconds (0.20 work units)
Optimal objective  1.196812695e+04

User-callback calls 209, time in user-callback 0.00 sec

=========================

OUTPUT STATISTICS
Relaxed: true
Time since start: 24.868512868881226
SetUpTime: 20.363005876541138
Objective value LB: 11968.126954825848
Objective value UB: 12605.0
Solving time LB: 0.8697311878204346
Solving time UB: 1.3508460521697998
Gap: 0.050525430001916075
